9
0 54 17 48 53 58 86 46 12 
58 0 3 35 93 85 4 20 59 
37 82 0 62 17 33 73 90 70 
7 44 79 0 54 15 35 25 38 
32 2 62 57 0 32 57 69 99 
98 16 32 75 93 0 91 46 33 
96 29 56 66 10 73 0 57 90 
98 71 17 65 50 38 74 0 3 
8 33 52 40 45 36 17 12 0 
